NAME 
ROWS
 N  OBJ
 L  R0      
 E  R1      
 E  R2      
 E  R3      
 E  R4      
 E  R5      
 E  R6      
 E  R7      
 E  R8      
 E  R9      
 E  R10     
 E  R11     
 E  R12     
 E  R13     
 E  R14     
 E  R15     
 E  R16     
 E  R17     
 E  R18     
 E  R19     
 E  R20     
 E  R21     
 E  R22     
 E  R23     
 E  R24     
 E  R25     
 E  R26     
 E  R27     
 E  R28     
 E  R29     
 E  R30     
COLUMNS
    MARKER    'MARKER'                 'INTORG'
    I0(3)     OBJ       158
    I0(3)     R0        -179
    I0(3)     R1        6
    I0(3)     R30       1
    I1(3)     OBJ       -89
    I1(3)     R0        160
    I1(3)     R2        6
    I1(3)     R30       1
    I2(3)     OBJ       2
    I2(3)     R0        -55
    I2(3)     R3        -1
    I2(3)     R30       1
    I3(3)     OBJ       57
    I3(3)     R0        -118
    I3(3)     R4        18
    I3(3)     R30       1
    I4(3)     OBJ       -69
    I4(3)     R0        -94
    I4(3)     R5        10
    I4(3)     R30       1
    I5(3)     OBJ       136
    I5(3)     R0        -96
    I5(3)     R6        11
    I5(3)     R30       1
    I6(3)     OBJ       -4
    I6(3)     R0        195
    I6(3)     R7        10
    I6(3)     R30       1
    I7(3)     OBJ       -123
    I7(3)     R0        18
    I7(3)     R8        13
    I7(3)     R30       1
    I8(2)     OBJ       110
    I8(2)     R0        -17
    I8(2)     R30       1
    I9(3)     OBJ       9
    I9(3)     R0        80
    I9(3)     R10       18
    I9(3)     R30       1
    I10(3)    OBJ       -80
    I10(3)    R0        -136
    I10(3)    R11       15
    I10(3)    R30       1
    I11(3)    OBJ       90
    I11(3)    R0        142
    I11(3)    R12       16
    I11(3)    R30       1
    I12(3)    OBJ       146
    I12(3)    R0        101
    I12(3)    R13       17
    I12(3)    R30       1
    I13(3)    OBJ       19
    I13(3)    R0        133
    I13(3)    R14       11
    I13(3)    R30       1
    I14(3)    OBJ       194
    I14(3)    R0        -174
    I14(3)    R15       16
    I14(3)    R30       1
    I15(3)    OBJ       113
    I15(3)    R0        32
    I15(3)    R16       7
    I15(3)    R30       1
    I16(3)    OBJ       -2
    I16(3)    R0        -63
    I16(3)    R17       5
    I16(3)    R30       1
    I17(3)    OBJ       72
    I17(3)    R0        -170
    I17(3)    R18       6
    I17(3)    R30       1
    I18(2)    OBJ       174
    I18(2)    R0        117
    I18(2)    R30       1
    I19(3)    OBJ       -118
    I19(3)    R0        123
    I19(3)    R20       11
    I19(3)    R30       1
    I20(3)    OBJ       -30
    I20(3)    R0        -20
    I20(3)    R21       16
    I20(3)    R30       1
    I21(3)    OBJ       104
    I21(3)    R0        -148
    I21(3)    R22       14
    I21(3)    R30       1
    I22(3)    OBJ       -82
    I22(3)    R0        30
    I22(3)    R23       8
    I22(3)    R30       1
    I23(3)    OBJ       -197
    I23(3)    R0        -108
    I23(3)    R24       10
    I23(3)    R30       1
    I24(3)    OBJ       -150
    I24(3)    R0        105
    I24(3)    R25       17
    I24(3)    R30       1
    I25(3)    OBJ       -18
    I25(3)    R0        -167
    I25(3)    R26       3
    I25(3)    R30       1
    I26(3)    OBJ       14
    I26(3)    R0        -91
    I26(3)    R27       14
    I26(3)    R30       1
    I27(3)    OBJ       -75
    I27(3)    R0        97
    I27(3)    R28       5
    I27(3)    R30       1
    MARKER    'MARKER'                 'INTEND'
    C28(30)   OBJ       7
    C28(30)   R0        6
    C28(30)   R1        11
    C28(30)   R2        7
    C28(30)   R3        16
    C28(30)   R4        15
    C28(30)   R5        5
    C28(30)   R6        13
    C28(30)   R7        3
    C28(30)   R8        10
    C28(30)   R9        6
    C28(30)   R10       1
    C28(30)   R11       9
    C28(30)   R12       13
    C28(30)   R13       11
    C28(30)   R14       1
    C28(30)   R15       11
    C28(30)   R16       12
    C28(30)   R17       9
    C28(30)   R18       1
    C28(30)   R19       1
    C28(30)   R20       6
    C28(30)   R21       8
    C28(30)   R22       10
    C28(30)   R23       4
    C28(30)   R24       2
    C28(30)   R25       19
    C28(30)   R26       16
    C28(30)   R27       4
    C28(30)   R28       8
    C28(30)   R29       9
    C29(27)   OBJ       -6
    C29(27)   R0        5
    C29(27)   R1        13
    C29(27)   R2        9
    C29(27)   R3        3
    C29(27)   R4        11
    C29(27)   R5        9
    C29(27)   R6        11
    C29(27)   R7        12
    C29(27)   R8        15
    C29(27)   R9        15
    C29(27)   R10       11
    C29(27)   R11       9
    C29(27)   R12       17
    C29(27)   R13       12
    C29(27)   R14       12
    C29(27)   R15       4
    C29(27)   R16       19
    C29(27)   R18       13
    C29(27)   R19       16
    C29(27)   R21       13
    C29(27)   R22       -1
    C29(27)   R23       8
    C29(27)   R24       11
    C29(27)   R26       5
    C29(27)   R27       -1
    C29(27)   R28       14
    C29(27)   R29       13
    C30(1)    R1        1
    C31(1)    R2        1
    C32(1)    R3        1
    C33(1)    R4        1
    C34(1)    R5        1
    C35(1)    R6        1
    C36(1)    R7        1
    C37(1)    R8        1
    C38(1)    R9        1
    C39(1)    R10       1
    C40(1)    R11       1
    C41(1)    R12       1
    C42(1)    R13       1
    C43(1)    R14       1
    C44(1)    R15       1
    C45(1)    R16       1
    C46(1)    R17       1
    C47(1)    R18       1
    C48(1)    R19       1
    C49(1)    R20       1
    C50(1)    R21       1
    C51(1)    R22       1
    C52(1)    R23       1
    C53(1)    R24       1
    C54(1)    R25       1
    C55(1)    R26       1
    C56(1)    R27       1
    C57(1)    R28       1
    C58(1)    R29       1
    C59(1)    R30       1
RHS
    RHS1      R0        2.0947368421052630e+02
    RHS1      R1        84
    RHS1      R2        55
    RHS1      R3        73
    RHS1      R4        61
    RHS1      R5        85
    RHS1      R6        52
    RHS1      R7        87
    RHS1      R8        93
    RHS1      R9        55
    RHS1      R10       87
    RHS1      R11       92
    RHS1      R12       72
    RHS1      R13       69
    RHS1      R14       97
    RHS1      R15       85
    RHS1      R16       55
    RHS1      R17       65
    RHS1      R18       94
    RHS1      R19       94
    RHS1      R20       72
    RHS1      R21       87
    RHS1      R22       65
    RHS1      R23       79
    RHS1      R24       87
    RHS1      R25       54
    RHS1      R26       59
    RHS1      R27       90
    RHS1      R28       85
    RHS1      R29       70
    RHS1      R30       9
BOUNDS
 UP BND1      I0(3)     1
 UP BND1      I1(3)     1
 UP BND1      I2(3)     1
 UP BND1      I3(3)     1
 UP BND1      I4(3)     1
 UP BND1      I5(3)     1
 UP BND1      I6(3)     1
 UP BND1      I7(3)     1
 UP BND1      I8(2)     1
 UP BND1      I9(3)     1
 UP BND1      I10(3)    1
 UP BND1      I11(3)    1
 UP BND1      I12(3)    1
 UP BND1      I13(3)    1
 UP BND1      I14(3)    1
 UP BND1      I15(3)    1
 UP BND1      I16(3)    1
 UP BND1      I17(3)    1
 UP BND1      I18(2)    1
 UP BND1      I19(3)    1
 UP BND1      I20(3)    1
 UP BND1      I21(3)    1
 UP BND1      I22(3)    1
 UP BND1      I23(3)    1
 UP BND1      I24(3)    1
 UP BND1      I25(3)    1
 UP BND1      I26(3)    1
 UP BND1      I27(3)    1
ENDATA
